(declare-const havoc Int)
(declare-const |phi_x:12:15| Int)
(declare-const |phi_x:10:11:14| Int)
(declare-const |havoc:3:9:13| Int)
(assert (and (< havoc 0)
               (or (and (< (+ havoc -10) 0) (< (+ |havoc:3:9:13| -10) 0)
                          (or (and (<= (+ (- |havoc:3:9:13|) 10) 0)
                                     (= (+ (- |phi_x:10:11:14|)
                                             |havoc:3:9:13|) 0))
                                (and (< (+ |havoc:3:9:13| -10) 0)
                                       (= (+ (- |phi_x:10:11:14|)
                                               |havoc:3:9:13| 1) 0)))
                          (<= (+ (- |phi_x:10:11:14|) 10) 0)
                          (= (+ (- |phi_x:12:15|) |phi_x:10:11:14|) 0))
                     (and (<= (+ (- havoc) 10) 0)
                            (= (+ (- |phi_x:12:15|) havoc) 0)))
               (not (= (+ |phi_x:12:15| -10) 0))))
(check-sat)
